
Gurobi 9.5.1 (mac64[x86]) logging started Wed Jun  8 16:41:17 2022

Set parameter LogFile to value "/Users/keyvanmajd/Documents/GitHub/NNRepLayer_v2/demos/examples/tc7_walking_example/repair_phase_constraint/repair_net/logs/opt_log_6_8_2022_16_40_47.log"
Gurobi Optimizer version 9.5.1 build v9.5.1rc2 (mac64[x86])
Thread count: 4 physical cores, 8 logical processors, using up to 8 threads
Optimize a model with 336 rows, 124 columns and 1135 nonzeros
Model fingerprint: 0xb1803d15
Model has 91 quadratic objective terms
Coefficient statistics:
  Matrix range     [3e-03, 1e+01]
  Objective range  [5e-02, 5e+00]
  QObjective range [2e-01, 2e+00]
  Bounds range     [1e+01, 1e+02]
  RHS range        [5e-04, 2e+01]
Presolve removed 204 rows and 13 columns
Presolve time: 0.00s
Presolved: 132 rows, 111 columns, 921 nonzeros
Presolved model has 91 quadratic objective terms
Ordering time: 0.00s

Barrier statistics:
 AA' NZ     : 6.562e+03
 Factor NZ  : 7.674e+03
 Factor Ops : 5.656e+05 (less than 1 second per iteration)
 Threads    : 1

                  Objective                Residual
Iter       Primal          Dual         Primal    Dual     Compl     Time
   0   4.02362296e+07 -4.09532844e+07  4.46e+03 8.18e+02  8.84e+05     0s
   1   1.39888416e+07 -1.47213819e+07  2.54e+03 4.67e+02  5.12e+05     0s
   2   1.39401352e+05 -1.41263246e+06  2.57e+02 4.72e+01  7.34e+04     0s
   3   1.09518085e+03 -1.03886178e+06  1.60e+01 2.94e+00  7.69e+03     0s
   4   5.81036480e+02 -5.30586403e+05  2.66e+00 4.87e-01  2.50e+03     0s
   5   6.28880570e+02 -2.89958960e+05  1.15e+00 2.12e-01  1.34e+03     0s
   6   7.39161531e+02 -1.31386120e+05  1.92e-01 3.53e-02  5.66e+02     0s
   7   7.52920143e+02 -9.23119981e+03  1.35e-03 2.49e-04  3.79e+01     0s
   8   7.48064847e+02  5.31285867e+02  2.26e-05 4.15e-06  8.15e-01     0s
   9   7.18470534e+02  6.63409114e+02  1.73e-06 3.18e-07  2.07e-01     0s
  10   7.04011106e+02  6.96108836e+02  1.48e-10 5.15e-13  2.97e-02     0s
  11   7.03356275e+02  7.03306522e+02  1.09e-10 5.83e-13  1.87e-04     0s
  12   7.03350578e+02  7.03349914e+02  3.98e-10 5.32e-13  2.50e-06     0s
  13   7.03350276e+02  7.03350184e+02  7.34e-10 5.58e-13  3.42e-07     0s
  14   7.03350223e+02  7.03350213e+02  4.40e-10 8.88e-13  4.01e-08     0s
  15   7.03350218e+02  7.03350215e+02  2.93e-09 8.42e-13  1.81e-09     0s

Barrier solved model in 15 iterations and 0.01 seconds (0.01 work units)
Optimal objective 7.03350218e+02

